p tw 64 69
1 2
2 13
3 4
4 5
5 6
6 7
7 8
8 9
9 10
9 16
10 11
11 12
12 14
13 24
14 15
15 60
16 17
17 18
18 19
18 23
19 20
20 21
21 22
22 60
23 25
24 35
25 26
25 44
26 27
26 32
27 28
28 29
29 30
30 31
31 32
32 33
33 34
34 36
35 46
36 37
37 38
38 39
39 40
40 41
41 42
42 43
43 60
44 45
45 47
46 57
47 48
47 53
48 49
49 50
50 51
51 52
52 53
53 54
54 55
55 56
56 58
57 62
58 59
59 60
60 61
62 63
62 6
63 64
64 3
